predicate jacop_subcircuit(array [int] of var int: x);
array [1..3] of int: X_INTRODUCED_49 = [1,-1,-1];
array [1..10] of int: X_INTRODUCED_60 = [0,10,11,6,0,0,0,0,0,0];
array [1..2] of int: X_INTRODUCED_62 = [-1,1];
array [1..10] of int: X_INTRODUCED_63 = [10,0,5,8,0,0,0,0,0,0];
array [1..10] of int: X_INTRODUCED_65 = [11,5,0,0,3,5,0,0,0,0];
array [1..10] of int: X_INTRODUCED_67 = [6,8,0,0,2,6,7,0,0,0];
array [1..10] of int: X_INTRODUCED_69 = [0,0,3,2,0,0,12,0,0,0];
array [1..10] of int: X_INTRODUCED_71 = [0,0,5,6,0,0,0,14,0,0];
array [1..10] of int: X_INTRODUCED_73 = [0,0,0,7,12,0,0,5,3,0];
array [1..10] of int: X_INTRODUCED_75 = [0,0,0,0,0,14,5,0,1,9];
array [1..10] of int: X_INTRODUCED_77 = [0,0,0,0,0,0,3,1,0,2];
array [1..3] of int: X_INTRODUCED_84 = [1,-1,1];
var 0..0: X_INTRODUCED_0;
var 0..10: X_INTRODUCED_1;
var 0..10: X_INTRODUCED_2;
var 0..10: X_INTRODUCED_3;
var 0..10: X_INTRODUCED_4;
var 0..10: X_INTRODUCED_5;
var 0..10: X_INTRODUCED_6;
var 0..10: X_INTRODUCED_7;
var 0..10: X_INTRODUCED_8;
var 0..10: X_INTRODUCED_9;
var 0..10: X_INTRODUCED_10;
var 0..10: X_INTRODUCED_11;
var 0..10: X_INTRODUCED_12;
var 0..10: X_INTRODUCED_13;
var 0..10: X_INTRODUCED_14;
var 0..10: X_INTRODUCED_15;
var 0..10: X_INTRODUCED_16;
var 0..10: X_INTRODUCED_17;
var 0..10: X_INTRODUCED_18;
var 0..10: X_INTRODUCED_19;
var 0..10: X_INTRODUCED_20:: is_defined_var;
var 0..10: X_INTRODUCED_21:: is_defined_var;
var 0..10: X_INTRODUCED_22:: is_defined_var;
var 0..10: X_INTRODUCED_23:: is_defined_var;
var 0..10: X_INTRODUCED_24:: is_defined_var;
var 0..10: X_INTRODUCED_25:: is_defined_var;
var 0..10: X_INTRODUCED_26:: is_defined_var;
var 0..10: X_INTRODUCED_27:: is_defined_var;
var 0..10: X_INTRODUCED_28:: is_defined_var;
var 0..10: X_INTRODUCED_29:: is_defined_var;
var 2..4: C1:: output_var;
var 2..4: C2:: output_var;
var {2,3,5,6}: C3:: output_var;
var {2,4,5,6,7}: C4:: output_var;
var {3,4,5,7}: C5:: output_var;
var {3,4,6,8}: C6:: output_var;
var {4,5,7,8,9}: C7:: output_var;
var 6..10: C8:: output_var;
var 7..10: C9:: output_var;
var 0..1030: cost:: is_defined_var;
var 0..11: X_INTRODUCED_61 ::var_is_introduced :: is_defined_var;
var 0..10: X_INTRODUCED_64 ::var_is_introduced :: is_defined_var;
var 0..11: X_INTRODUCED_66 ::var_is_introduced :: is_defined_var;
var 0..8: X_INTRODUCED_68 ::var_is_introduced :: is_defined_var;
var 0..12: X_INTRODUCED_70 ::var_is_introduced :: is_defined_var;
var 0..14: X_INTRODUCED_72 ::var_is_introduced :: is_defined_var;
var 0..12: X_INTRODUCED_74 ::var_is_introduced :: is_defined_var;
var 0..14: X_INTRODUCED_76 ::var_is_introduced :: is_defined_var;
var 0..3: X_INTRODUCED_78 ::var_is_introduced :: is_defined_var;
var 0..9: X_INTRODUCED_80 ::var_is_introduced :: is_defined_var;
var 0..10: X_INTRODUCED_81 ::var_is_introduced :: is_defined_var;
var 0..10: X_INTRODUCED_85 ::var_is_introduced :: is_defined_var;
var 0..10: X_INTRODUCED_87 ::var_is_introduced :: is_defined_var;
var 0..10: X_INTRODUCED_89 ::var_is_introduced :: is_defined_var;
var 0..10: X_INTRODUCED_91 ::var_is_introduced :: is_defined_var;
var 0..10: X_INTRODUCED_93 ::var_is_introduced :: is_defined_var;
var 0..10: X_INTRODUCED_95 ::var_is_introduced :: is_defined_var;
var 0..10: X_INTRODUCED_97 ::var_is_introduced :: is_defined_var;
var 0..10: X_INTRODUCED_99 ::var_is_introduced :: is_defined_var;
var 0..10: X_INTRODUCED_101 ::var_is_introduced :: is_defined_var;
array [1..10] of var 0..10: tankIn = [0,X_INTRODUCED_1,X_INTRODUCED_2,X_INTRODUCED_3,X_INTRODUCED_4,X_INTRODUCED_5,X_INTRODUCED_6,X_INTRODUCED_7,X_INTRODUCED_8,X_INTRODUCED_9];
array [1..10] of var 0..10: fuelBought:: output_array([1..10]) = [X_INTRODUCED_10,X_INTRODUCED_11,X_INTRODUCED_12,X_INTRODUCED_13,X_INTRODUCED_14,X_INTRODUCED_15,X_INTRODUCED_16,X_INTRODUCED_17,X_INTRODUCED_18,X_INTRODUCED_19];
array [1..10] of var int: cities = [C1,C2,C3,C4,C5,C6,C7,C8,C9,1];
constraint int_eq(X_INTRODUCED_20,X_INTRODUCED_10);
constraint int_lin_eq(X_INTRODUCED_49,[X_INTRODUCED_21,X_INTRODUCED_1,X_INTRODUCED_11],0):: defines_var(X_INTRODUCED_21);
constraint int_lin_eq(X_INTRODUCED_49,[X_INTRODUCED_22,X_INTRODUCED_2,X_INTRODUCED_12],0):: defines_var(X_INTRODUCED_22);
constraint int_lin_eq(X_INTRODUCED_49,[X_INTRODUCED_23,X_INTRODUCED_3,X_INTRODUCED_13],0):: defines_var(X_INTRODUCED_23);
constraint int_lin_eq(X_INTRODUCED_49,[X_INTRODUCED_24,X_INTRODUCED_4,X_INTRODUCED_14],0):: defines_var(X_INTRODUCED_24);
constraint int_lin_eq(X_INTRODUCED_49,[X_INTRODUCED_25,X_INTRODUCED_5,X_INTRODUCED_15],0):: defines_var(X_INTRODUCED_25);
constraint int_lin_eq(X_INTRODUCED_49,[X_INTRODUCED_26,X_INTRODUCED_6,X_INTRODUCED_16],0):: defines_var(X_INTRODUCED_26);
constraint int_lin_eq(X_INTRODUCED_49,[X_INTRODUCED_27,X_INTRODUCED_7,X_INTRODUCED_17],0):: defines_var(X_INTRODUCED_27);
constraint int_lin_eq(X_INTRODUCED_49,[X_INTRODUCED_28,X_INTRODUCED_8,X_INTRODUCED_18],0):: defines_var(X_INTRODUCED_28);
constraint int_lin_eq(X_INTRODUCED_49,[X_INTRODUCED_29,X_INTRODUCED_9,X_INTRODUCED_19],0):: defines_var(X_INTRODUCED_29);
constraint array_int_element(C1,X_INTRODUCED_60,X_INTRODUCED_61);
constraint int_lin_le(X_INTRODUCED_62,[X_INTRODUCED_20,X_INTRODUCED_61],0);
constraint array_int_element(C2,X_INTRODUCED_63,X_INTRODUCED_64);
constraint int_lin_le(X_INTRODUCED_62,[X_INTRODUCED_21,X_INTRODUCED_64],0);
constraint array_int_element(C3,X_INTRODUCED_65,X_INTRODUCED_66);
constraint int_lin_le(X_INTRODUCED_62,[X_INTRODUCED_22,X_INTRODUCED_66],0);
constraint array_int_element(C4,X_INTRODUCED_67,X_INTRODUCED_68);
constraint int_lin_le(X_INTRODUCED_62,[X_INTRODUCED_23,X_INTRODUCED_68],0);
constraint array_int_element(C5,X_INTRODUCED_69,X_INTRODUCED_70);
constraint int_lin_le(X_INTRODUCED_62,[X_INTRODUCED_24,X_INTRODUCED_70],0);
constraint array_int_element(C6,X_INTRODUCED_71,X_INTRODUCED_72);
constraint int_lin_le(X_INTRODUCED_62,[X_INTRODUCED_25,X_INTRODUCED_72],0);
constraint array_int_element(C7,X_INTRODUCED_73,X_INTRODUCED_74);
constraint int_lin_le(X_INTRODUCED_62,[X_INTRODUCED_26,X_INTRODUCED_74],0);
constraint array_int_element(C8,X_INTRODUCED_75,X_INTRODUCED_76);
constraint int_lin_le(X_INTRODUCED_62,[X_INTRODUCED_27,X_INTRODUCED_76],0);
constraint array_int_element(C9,X_INTRODUCED_77,X_INTRODUCED_78);
constraint int_lin_le(X_INTRODUCED_62,[X_INTRODUCED_28,X_INTRODUCED_78],0);
constraint int_eq(0,X_INTRODUCED_80);
constraint int_lin_le(X_INTRODUCED_62,[X_INTRODUCED_29,X_INTRODUCED_80],0);
constraint array_var_int_element(C1,tankIn,X_INTRODUCED_81):: defines_var(X_INTRODUCED_81);
constraint int_lin_eq(X_INTRODUCED_84,[X_INTRODUCED_81,X_INTRODUCED_20,X_INTRODUCED_61],0):: defines_var(X_INTRODUCED_81);
constraint array_var_int_element(C2,tankIn,X_INTRODUCED_85):: defines_var(X_INTRODUCED_85);
constraint int_lin_eq(X_INTRODUCED_84,[X_INTRODUCED_85,X_INTRODUCED_21,X_INTRODUCED_64],0):: defines_var(X_INTRODUCED_85);
constraint array_var_int_element(C3,tankIn,X_INTRODUCED_87):: defines_var(X_INTRODUCED_87);
constraint int_lin_eq(X_INTRODUCED_84,[X_INTRODUCED_87,X_INTRODUCED_22,X_INTRODUCED_66],0):: defines_var(X_INTRODUCED_87);
constraint array_var_int_element(C4,tankIn,X_INTRODUCED_89):: defines_var(X_INTRODUCED_89);
constraint int_lin_eq(X_INTRODUCED_84,[X_INTRODUCED_89,X_INTRODUCED_23,X_INTRODUCED_68],0):: defines_var(X_INTRODUCED_89);
constraint array_var_int_element(C5,tankIn,X_INTRODUCED_91):: defines_var(X_INTRODUCED_91);
constraint int_lin_eq(X_INTRODUCED_84,[X_INTRODUCED_91,X_INTRODUCED_24,X_INTRODUCED_70],0):: defines_var(X_INTRODUCED_91);
constraint array_var_int_element(C6,tankIn,X_INTRODUCED_93):: defines_var(X_INTRODUCED_93);
constraint int_lin_eq(X_INTRODUCED_84,[X_INTRODUCED_93,X_INTRODUCED_25,X_INTRODUCED_72],0):: defines_var(X_INTRODUCED_93);
constraint array_var_int_element(C7,tankIn,X_INTRODUCED_95):: defines_var(X_INTRODUCED_95);
constraint int_lin_eq(X_INTRODUCED_84,[X_INTRODUCED_95,X_INTRODUCED_26,X_INTRODUCED_74],0):: defines_var(X_INTRODUCED_95);
constraint array_var_int_element(C8,tankIn,X_INTRODUCED_97):: defines_var(X_INTRODUCED_97);
constraint int_lin_eq(X_INTRODUCED_84,[X_INTRODUCED_97,X_INTRODUCED_27,X_INTRODUCED_76],0):: defines_var(X_INTRODUCED_97);
constraint array_var_int_element(C9,tankIn,X_INTRODUCED_99):: defines_var(X_INTRODUCED_99);
constraint int_lin_eq(X_INTRODUCED_84,[X_INTRODUCED_99,X_INTRODUCED_28,X_INTRODUCED_78],0):: defines_var(X_INTRODUCED_99);
constraint int_eq(X_INTRODUCED_0,X_INTRODUCED_101);
constraint int_lin_eq(X_INTRODUCED_84,[X_INTRODUCED_101,X_INTRODUCED_29,X_INTRODUCED_80],0):: defines_var(X_INTRODUCED_101);
constraint jacop_subcircuit(cities);
constraint int_lin_eq([10,10,8,12,13,9,10,11,12,8,-1],[X_INTRODUCED_10,X_INTRODUCED_11,X_INTRODUCED_12,X_INTRODUCED_13,X_INTRODUCED_14,X_INTRODUCED_15,X_INTRODUCED_16,X_INTRODUCED_17,X_INTRODUCED_18,X_INTRODUCED_19,cost],0):: defines_var(cost);
solve :: int_search(cities,input_order,indomain_min,complete) minimize cost;
